
%FILE DATA:	Soccer Computational Problem for MiniZinc Models	%
%AUTHOR:	Jack Wall	%
%CONTACT:  	116397063@umail.ucc.ie			%
%LAST UPDATE:	03/12/2020, 10:36:46						%
%DESCRIPTION: 	143 games played with 13 games left				%


n=13; %number of teams

%Games to play
games=[|13,9|5,12|10,1|1,11|7,13|8,11|10,7|7,4|13,1|5,2|2,5|3,5|8,1|];

%Initial points
iPoints=[33,29,26,27,31,28,26,28,29,45,29,24,25];

%POSITION CONSTRAINTS
% [|teamID, operator, position|...]
% operators index:
%  1 for =  operator
%  2 for >  operator
%  3 for >= operator
%  4 for <  operator
%  5 for <= operator
positionConstraints=[|10,4,2|1,3,2|5,5,3|8,5,4|];